8
30
10
33
7 14 0
5 18 0
4 1 1 1
1 11 2 1 2
8 3 3 1 2 3
1 3 3 1 2 3
1 4 2 1 2
7 16 4 1 2 3 4
4 13 1 1
7 14 8 1 2 3 4 5 6 7 8
23
41
5 10 0
4 12 0
7 6 0
1 3 0
2 12 0
7 5 4 1 2 3 4
6 8 4 1 2 3 4
2 5 4 1 2 3 4
1 15 5 1 2 3 4 5
8 10 0
6 8 7 1 2 3 4 5 6 7
4 8 3 1 2 3
3 15 9 1 2 3 4 5 6 7 8 9
1 16 6 1 2 3 4 5 6
5 15 4 1 2 3 4
8 19 9 1 2 3 4 5 6 7 8 9
5 9 10 1 2 3 4 5 6 7 8 9 10
1 2 0
5 8 10 1 2 3 4 5 6 7 8 9 10
1 11 0
7 4 2 1 2
1 7 13 1 2 3 4 5 6 7 8 9 10 11 12 13
4 13 8 1 2 3 4 5 6 7 8
5
11
5 18 0
7 15 0
3 10 1 1
7 20 0
3 4 3 1 2 3
16
44
6 15 0
5 13 0
3 13 1 1
3 14 0
6 3 3 1 2 3
2 13 0
8 17 5 1 2 3 4 5
3 7 1 1
5 4 2 1 2
8 4 1 1
1 15 0
8 17 9 1 2 3 4 5 6 7 8 9
6 10 7 1 2 3 4 5 6 7
6 15 7 1 2 3 4 5 6 7
8 5 1 1
5 9 6 1 2 3 4 5 6
6
39
5 11 0
2 16 0
7 4 0
8 13 1 1
3 18 3 1 2 3
1 13 3 1 2 3
5
34
5 4 0
5 20 0
2 3 1 1
3 11 1 1
4 1 1 1
2
36
1 6 0
8 8 0
2
24
4 10 0
3 8 0
1
44
8 1 0
3
40
6 12 0
2 10 0
7 17 1 1
3
51
1 5 0
5 3 0
2 11 0
2
26
7 8 0
6 15 0
1
24
7 13 0
1
30
8 6 0
1
16
3 16 0
1
13
6 5 0
1
61
6 8 0
1
34
3 13 0
2
58
1 2 0
7 13 0
1
28
4 20 0
1
23
7 10 0
1
29
3 4 0
1
0
2 9 0
1
6
5 3 0
1
11
5 20 0
1
5
5 20 0
1
21
8 7 0
1
60
1 4 0
1
1
2 10 0
1
5
8 8 0
